70
1 0 3
2 1 3
3 0 1
3 2 1
4 0 3
4 2 1
5 0 5
5 1 4
5 4 4
6 1 1
6 2 4
6 3 1
6 5 1
7 3 5
7 5 2
7 6 4
8 1 3
8 3 1
8 4 5
8 7 2
9 1 2
9 3 2
9 5 2
9 7 3
10 1 1
10 2 3
10 4 1
10 6 1
10 7 3
10 8 3
11 0 4
11 2 4
11 4 4
11 7 1
11 8 5
12 0 2
12 2 2
12 5 1
12 7 3
12 11 2
13 0 3
13 1 2
13 3 4
13 4 5
13 7 1
13 8 1
13 10 3
13 11 1
14 1 4
14 2 1
14 6 3
14 7 5
14 8 5
14 9 5
14 11 5
15 1 5
15 3 3
15 4 2
15 6 2
15 7 1
15 8 4
15 9 3
15 11 3
15 13 3
16 0 2
16 1 1
16 2 4
16 7 2
16 8 4
16 12 2
16 13 1
16 14 1
16 15 4
17 0 5
17 1 1
17 2 4
17 5 2
17 8 4
17 9 2
17 14 4
17 16 4
18 0 1
18 2 5
18 5 4
18 7 5
18 12 3
18 14 4
18 16 1
19 2 2
19 4 2
19 6 5
19 7 1
19 12 3
19 13 1
19 15 3
19 16 2
20 0 2
20 1 5
20 5 3
20 6 5
20 10 4
20 12 5
20 18 1
20 19 2
21 1 4
21 6 1
21 7 4
21 9 3
21 10 1
21 12 2
21 14 2
21 15 1
21 16 4
21 20 4
22 0 4
22 3 2
22 5 4
22 6 3
22 7 2
22 9 5
22 10 3
22 13 5
22 14 1
22 15 4
22 16 3
22 17 1
22 18 3
23 1 1
23 3 2
23 4 1
23 7 2
23 11 2
23 13 5
23 15 3
23 16 4
23 18 5
23 20 4
23 21 5
23 22 1
24 0 2
24 3 4
24 4 4
24 5 5
24 8 1
24 10 3
24 13 2
24 14 4
24 17 2
24 18 5
24 23 4
25 0 2
25 1 2
25 2 1
25 4 3
25 6 2
25 7 4
25 11 2
25 13 2
25 14 5
25 15 2
25 18 4
25 19 3
25 20 5
25 21 3
25 22 5
25 23 1
25 24 3
26 0 2
26 5 4
26 9 4
26 15 1
26 17 4
26 19 1
26 20 3
26 21 5
26 23 1
26 24 4
27 2 3
27 3 5
27 4 3
27 6 5
27 9 5
27 12 1
27 15 2
27 26 4
28 0 4
28 4 4
28 7 3
28 8 5
28 9 3
28 12 2
28 15 5
28 17 4
28 18 5
28 19 5
28 20 2
28 24 1
28 25 3
28 26 4
28 27 5
29 0 4
29 2 4
29 3 3
29 6 4
29 10 2
29 11 4
29 12 1
29 13 5
29 18 5
29 20 5
29 22 2
29 27 2
29 28 5
30 0 1
30 6 3
30 7 1
30 9 5
30 10 5
30 13 4
30 15 3
30 16 1
30 19 2
30 22 3
30 27 3
30 28 4
31 2 2
31 3 2
31 4 5
31 7 5
31 8 1
31 10 4
31 12 2
31 13 5
31 15 2
31 17 2
31 18 4
31 19 1
31 23 4
31 25 5
31 26 2
31 30 3
32 0 2
32 1 4
32 3 1
32 7 4
32 8 4
32 11 5
32 12 5
32 14 2
32 15 3
32 17 4
32 19 4
32 21 5
32 22 3
32 23 3
32 26 2
32 28 3
32 29 3
32 31 4
33 1 3
33 6 4
33 7 3
33 8 1
33 12 2
33 13 1
33 17 1
33 18 1
33 19 1
33 20 4
33 26 4
33 28 1
33 31 5
34 4 2
34 6 4
34 7 4
34 11 3
34 14 5
34 17 5
34 19 5
34 24 4
34 26 1
34 31 2
34 33 1
35 3 3
35 5 1
35 6 4
35 8 3
35 9 5
35 10 1
35 11 3
35 12 1
35 14 4
35 15 4
35 16 4
35 21 5
35 22 1
35 23 1
35 25 1
35 26 1
36 2 5
36 4 2
36 6 4
36 7 5
36 9 4
36 10 4
36 11 3
36 12 4
36 13 2
36 14 2
36 15 1
36 20 2
36 21 3
36 22 5
36 24 4
36 25 3
36 26 4
36 27 4
36 30 2
36 31 1
36 32 3
36 33 2
36 34 5
37 11 3
37 13 3
37 15 2
37 18 2
37 19 1
37 20 2
37 22 3
37 27 5
37 29 2
37 30 1
37 32 3
38 2 1
38 3 2
38 4 4
38 5 5
38 6 4
38 7 3
38 8 5
38 13 4
38 14 1
38 15 2
38 16 1
38 17 2
38 21 4
38 24 5
38 26 3
38 27 2
38 29 2
38 30 5
38 31 4
38 32 5
38 34 5
38 36 1
39 0 4
39 2 2
39 3 3
39 7 1
39 8 5
39 10 1
39 12 3
39 13 4
39 14 4
39 17 4
39 18 3
39 21 1
39 22 2
39 23 4
39 27 1
39 29 3
39 31 1
39 33 2
39 35 3
39 36 5
39 37 4
40 1 2
40 2 5
40 6 5
40 9 2
40 13 5
40 15 3
40 16 1
40 23 4
40 25 5
40 26 2
40 32 3
40 33 1
40 36 4
40 37 1
40 38 4
40 39 3
41 0 5
41 7 5
41 8 1
41 9 5
41 10 3
41 11 5
41 12 1
41 13 1
41 15 1
41 22 5
41 23 4
41 24 3
41 26 5
41 29 2
41 30 4
41 31 1
41 34 4
41 35 5
41 38 1
42 0 1
42 2 2
42 5 2
42 8 3
42 11 3
42 14 1
42 15 5
42 16 2
42 18 2
42 20 5
42 23 2
42 24 2
42 25 3
42 26 5
42 28 5
42 29 5
42 30 4
42 31 1
42 34 2
42 35 5
42 37 5
42 38 1
42 41 2
43 0 3
43 1 5
43 2 1
43 3 1
43 4 1
43 5 1
43 8 2
43 9 3
43 11 3
43 12 2
43 14 2
43 16 1
43 22 1
43 23 3
43 24 4
43 28 4
43 29 2
43 30 5
43 31 1
43 32 2
43 35 3
43 41 5
43 42 3
44 0 3
44 4 1
44 5 5
44 7 2
44 8 5
44 9 1
44 12 4
44 13 3
44 15 5
44 18 2
44 19 5
44 21 2
44 25 2
44 26 1
44 29 1
44 30 5
44 34 1
44 35 3
44 36 1
44 37 4
44 40 4
44 41 3
44 42 3
44 43 2
45 0 5
45 1 1
45 2 3
45 4 1
45 8 5
45 9 1
45 10 3
45 11 2
45 16 5
45 19 1
45 21 1
45 27 5
45 36 4
45 40 5
45 42 2
45 44 3
46 0 1
46 3 2
46 4 5
46 5 4
46 8 5
46 10 3
46 12 5
46 13 4
46 15 1
46 16 4
46 17 4
46 18 5
46 19 1
46 21 3
46 22 2
46 23 5
46 25 5
46 26 5
46 29 2
46 32 3
46 35 1
46 36 4
46 40 2
46 41 3
46 43 4
46 44 1
47 0 1
47 1 5
47 3 4
47 4 5
47 8 2
47 10 5
47 11 1
47 12 3
47 13 2
47 15 5
47 18 1
47 20 2
47 22 3
47 25 2
47 26 1
47 27 1
47 28 5
47 30 4
47 34 4
47 37 4
47 39 4
47 42 3
47 43 1
47 45 3
48 2 2
48 3 5
48 4 4
48 5 1
48 6 3
48 9 2
48 10 1
48 11 3
48 12 3
48 15 4
48 16 4
48 18 5
48 19 2
48 20 2
48 22 5
48 23 2
48 26 1
48 27 3
48 30 5
48 32 4
48 33 2
48 34 2
48 35 4
48 37 2
48 38 3
48 39 1
48 40 1
48 45 4
48 47 5
49 0 2
49 1 4
49 4 2
49 7 5
49 8 5
49 10 2
49 12 1
49 13 3
49 15 3
49 17 3
49 18 2
49 19 2
49 22 5
49 23 1
49 24 1
49 26 1
49 28 2
49 38 1
49 41 5
49 42 1
49 43 4
49 45 4
50 3 3
50 4 1
50 5 4
50 9 3
50 12 5
50 14 4
50 17 2
50 18 3
50 21 3
50 22 2
50 23 4
50 24 5
50 25 2
50 30 2
50 31 3
50 33 1
50 35 1
50 39 1
50 40 2
50 41 3
50 42 2
50 43 4
50 44 3
50 45 2
50 47 2
51 0 5
51 1 1
51 2 4
51 5 2
51 11 3
51 12 2
51 14 3
51 15 4
51 16 3
51 17 4
51 18 3
51 20 2
51 21 4
51 22 1
51 23 5
51 24 3
51 25 3
51 28 4
51 29 4
51 30 2
51 31 5
51 33 4
51 34 1
51 38 5
51 40 2
51 42 1
51 43 1
51 45 4
51 47 3
52 2 1
52 4 3
52 6 2
52 7 2
52 10 4
52 11 5
52 13 3
52 14 2
52 17 4
52 18 5
52 20 2
52 22 1
52 23 1
52 24 3
52 25 1
52 26 2
52 27 3
52 30 4
52 31 4
52 34 4
52 36 4
52 37 1
52 38 5
52 43 5
52 45 1
52 47 4
52 48 4
52 49 4
52 51 2
53 0 3
53 1 2
53 2 3
53 8 5
53 10 5
53 12 1
53 13 3
53 15 1
53 16 1
53 18 4
53 19 5
53 22 2
53 25 2
53 26 2
53 27 1
53 31 3
53 36 5
53 39 1
53 44 5
53 45 4
53 46 5
53 48 5
53 49 1
53 50 5
53 51 5
54 2 3
54 5 4
54 6 4
54 7 3
54 8 2
54 9 5
54 10 2
54 11 4
54 12 5
54 13 3
54 16 3
54 19 5
54 21 3
54 24 1
54 25 1
54 26 2
54 28 1
54 29 3
54 33 1
54 36 3
54 37 5
54 40 4
54 42 1
54 43 3
54 44 2
54 47 5
54 52 3
54 53 4
55 3 4
55 5 3
55 6 5
55 9 2
55 13 1
55 16 1
55 18 1
55 22 1
55 23 5
55 24 3
55 26 2
55 27 1
55 29 4
55 32 4
55 33 3
55 35 2
55 38 5
55 39 2
55 42 3
55 44 5
55 45 2
55 47 4
55 48 4
55 49 4
55 50 4
55 54 5
56 4 3
56 6 1
56 8 1
56 10 1
56 11 3
56 12 1
56 13 2
56 17 5
56 18 2
56 19 5
56 20 1
56 21 3
56 23 2
56 25 1
56 29 1
56 30 5
56 31 1
56 32 4
56 34 4
56 35 1
56 36 1
56 37 1
56 39 5
56 40 4
56 41 2
56 42 3
56 51 4
56 53 2
56 55 5
57 0 3
57 1 1
57 3 4
57 4 4
57 6 2
57 8 2
57 12 1
57 14 5
57 15 5
57 16 5
57 19 2
57 20 2
57 21 3
57 24 4
57 25 2
57 26 3
57 27 2
57 28 5
57 29 3
57 32 2
57 35 3
57 37 3
57 38 4
57 42 1
57 44 1
57 45 2
57 48 1
57 49 2
57 51 3
57 55 3
57 56 1
58 0 3
58 1 3
58 6 2
58 8 4
58 10 1
58 12 3
58 13 5
58 14 1
58 17 3
58 18 5
58 20 4
58 25 1
58 28 4
58 29 5
58 31 5
58 32 4
58 37 1
58 40 4
58 42 5
58 43 3
58 45 4
58 46 1
58 48 5
58 53 2
58 54 1
58 55 1
58 57 5
59 0 1
59 3 4
59 5 2
59 6 2
59 7 5
59 9 5
59 10 2
59 11 2
59 13 5
59 14 3
59 16 1
59 17 4
59 18 1
59 19 4
59 20 5
59 21 1
59 22 2
59 24 5
59 25 4
59 26 5
59 27 5
59 29 4
59 37 2
59 39 2
59 40 3
59 42 4
59 43 3
59 44 1
59 47 2
59 50 5
59 54 1
59 56 5
59 57 2
59 58 5
60 0 4
60 6 5
60 7 1
60 8 2
60 9 5
60 10 4
60 16 4
60 17 2
60 18 2
60 19 4
60 23 1
60 25 2
60 28 5
60 29 5
60 32 4
60 34 4
60 37 3
60 38 5
60 39 1
60 42 1
60 43 1
60 45 1
60 50 4
60 51 2
60 55 2
60 56 4
60 58 2
60 59 2
61 0 1
61 1 1
61 3 4
61 6 3
61 9 2
61 10 5
61 11 3
61 14 1
61 15 5
61 16 1
61 18 4
61 21 3
61 23 2
61 25 2
61 26 5
61 27 5
61 28 4
61 29 3
61 31 3
61 32 4
61 34 3
61 35 2
61 37 1
61 40 3
61 44 3
61 45 3
61 49 2
61 50 3
61 51 1
61 56 2
61 58 1
61 59 3
61 60 5
62 0 2
62 3 1
62 8 3
62 9 2
62 10 5
62 12 2
62 13 5
62 14 2
62 15 1
62 16 5
62 18 2
62 19 2
62 20 2
62 21 2
62 22 4
62 24 3
62 27 1
62 28 1
62 33 3
62 35 5
62 39 1
62 41 2
62 42 4
62 45 2
62 49 2
62 50 3
62 51 4
62 53 1
62 54 3
62 56 4
62 58 5
62 61 2
63 0 5
63 2 4
63 4 5
63 5 4
63 6 1
63 7 3
63 9 4
63 13 1
63 14 5
63 18 4
63 20 5
63 22 2
63 24 3
63 25 4
63 26 1
63 27 3
63 29 4
63 30 5
63 34 2
63 35 3
63 36 1
63 37 1
63 38 4
63 41 3
63 44 1
63 45 4
63 47 4
63 48 2
63 51 1
63 55 4
63 57 3
63 58 1
63 60 5
64 0 2
64 1 2
64 5 2
64 6 5
64 7 1
64 8 4
64 12 2
64 16 1
64 21 2
64 22 3
64 25 5
64 26 4
64 28 2
64 32 3
64 33 5
64 38 4
64 41 2
64 45 4
64 46 5
64 50 5
64 52 3
64 53 4
64 54 3
64 58 3
64 61 1
64 63 3
65 7 1
65 9 2
65 10 3
65 12 5
65 13 1
65 15 2
65 16 4
65 20 3
65 22 4
65 27 3
65 29 2
65 31 5
65 33 5
65 34 4
65 35 1
65 37 1
65 38 3
65 39 2
65 41 3
65 42 3
65 43 4
65 46 2
65 47 1
65 48 4
65 50 4
65 51 2
65 52 3
65 56 5
65 57 4
65 60 3
65 61 1
65 62 2
66 1 1
66 3 2
66 7 4
66 8 1
66 9 1
66 11 2
66 13 4
66 14 4
66 15 4
66 16 1
66 19 3
66 22 1
66 23 5
66 26 5
66 29 3
66 35 2
66 36 3
66 41 4
66 43 4
66 46 3
66 48 1
66 49 5
66 50 2
66 51 1
66 52 4
66 56 5
66 57 1
66 58 5
66 59 3
66 60 1
66 62 3
66 64 4
67 0 5
67 3 1
67 8 2
67 9 2
67 10 1
67 11 4
67 12 3
67 15 5
67 17 5
67 18 2
67 21 2
67 24 1
67 25 4
67 26 4
67 36 4
67 38 5
67 39 4
67 40 3
67 41 4
67 42 2
67 43 1
67 44 5
67 46 2
67 47 4
67 51 5
67 53 4
67 54 4
67 55 4
67 59 1
67 60 4
67 62 1
67 63 4
67 64 1
67 66 4
68 4 4
68 5 5
68 8 5
68 9 5
68 11 4
68 12 2
68 16 5
68 17 5
68 18 4
68 20 4
68 22 5
68 24 4
68 26 5
68 27 1
68 28 3
68 29 4
68 33 1
68 35 4
68 36 5
68 40 5
68 41 2
68 44 5
68 46 2
68 47 2
68 51 3
68 53 2
68 54 1
68 55 2
68 56 5
68 57 1
68 58 2
68 61 4
68 64 4
68 65 4
68 67 5
69 0 2
69 1 2
69 5 4
69 6 1
69 12 2
69 14 2
69 16 1
69 20 2
69 21 1
69 22 1
69 23 2
69 24 4
69 25 2
69 30 4
69 31 1
69 32 3
69 34 2
69 35 1
69 36 3
69 37 4
69 39 3
69 40 5
69 42 3
69 43 1
69 44 1
69 45 3
69 46 1
69 49 5
69 55 4
69 56 5
69 63 4
69 66 5
69 68 3
